
-15.5
-15.1
-14.8
-13.6
-12.5
-10.8
-9.1
-7.9
-6.4
-5.6
-4.8
-4.4
-3.6
-3.4
-3.1
-3.0
-2.9
-2.8
-2.8
-2.7
-2.7
-2.7
-2.7
-2.7
-2.7
-2.7
-2.7
-2.7
-2.7
-2.7
-2.7
-2.6
-2.6
-2.6
-2.6
-2.6
-2.6
-2.6
-2.6
-2.6
-2.6
-2.6
-2.6
-2.6
-2.6
-2.6
-2.6
-2.6
-2.6
-2.6
-2.6
-2.6